c generated by sgen
p cnf 69 148
-2 -3 -4 0
-1 -3 -4 0
-1 -2 -4 0
-1 -2 -3 0
-6 -7 -8 0
-5 -7 -8 0
-5 -6 -8 0
-5 -6 -7 0
-10 -11 -12 0
-9 -11 -12 0
-9 -10 -12 0
-9 -10 -11 0
-14 -15 -16 0
-13 -15 -16 0
-13 -14 -16 0
-13 -14 -15 0
-18 -19 -20 0
-17 -19 -20 0
-17 -18 -20 0
-17 -18 -19 0
-22 -23 -24 0
-21 -23 -24 0
-21 -22 -24 0
-21 -22 -23 0
-26 -27 -28 0
-25 -27 -28 0
-25 -26 -28 0
-25 -26 -27 0
-30 -31 -32 0
-29 -31 -32 0
-29 -30 -32 0
-29 -30 -31 0
-34 -35 -36 0
-33 -35 -36 0
-33 -34 -36 0
-33 -34 -35 0
-38 -39 -40 0
-37 -39 -40 0
-37 -38 -40 0
-37 -38 -39 0
-42 -43 -44 0
-41 -43 -44 0
-41 -42 -44 0
-41 -42 -43 0
-46 -47 -48 0
-45 -47 -48 0
-45 -46 -48 0
-45 -46 -47 0
-50 -51 -52 0
-49 -51 -52 0
-49 -50 -52 0
-49 -50 -51 0
-54 -55 -56 0
-53 -55 -56 0
-53 -54 -56 0
-53 -54 -55 0
-58 -59 -60 0
-57 -59 -60 0
-57 -58 -60 0
-57 -58 -59 0
-62 -63 -64 0
-61 -63 -64 0
-61 -62 -64 0
-61 -62 -63 0
-65 -66 -67 0
-65 -66 -68 0
-65 -66 -69 0
-65 -67 -68 0
-65 -67 -69 0
-65 -68 -69 0
-66 -67 -68 0
-66 -67 -69 0
-66 -68 -69 0
-67 -68 -69 0
59 35 3 0
21 35 3 0
21 59 3 0
21 59 35 0
22 15 66 0
52 15 66 0
52 22 66 0
52 22 15 0
4 65 11 0
64 65 11 0
64 4 11 0
64 4 65 0
53 12 33 0
14 12 33 0
14 53 33 0
14 53 12 0
61 24 43 0
30 24 43 0
30 61 43 0
30 61 24 0
51 28 10 0
18 28 10 0
18 51 10 0
18 51 28 0
29 62 50 0
8 62 50 0
8 29 50 0
8 29 62 0
69 19 5 0
56 19 5 0
56 69 5 0
56 69 19 0
63 57 55 0
27 57 55 0
27 63 55 0
27 63 57 0
40 47 23 0
6 47 23 0
6 40 23 0
6 40 47 0
34 7 41 0
25 7 41 0
25 34 41 0
25 34 7 0
1 26 39 0
16 26 39 0
16 1 39 0
16 1 26 0
58 46 17 0
13 46 17 0
13 58 17 0
13 58 46 0
20 68 38 0
44 68 38 0
44 20 38 0
44 20 68 0
32 60 9 0
37 60 9 0
37 32 9 0
37 32 60 0
45 67 31 0
36 67 31 0
36 45 31 0
36 45 67 0
54 48 2 0
54 48 49 0
54 48 42 0
54 2 49 0
54 2 42 0
54 49 42 0
48 2 49 0
48 2 42 0
48 49 42 0
2 49 42 0
